(set-info :status unsat) ; swine result
(set-logic ALL)
(declare-fun i1 () Int)
(declare-fun it1 () Int)
(declare-fun it2 () Int)
(declare-fun i2 () Int)
(declare-fun it3 () Int)
(declare-fun i3 () Int)
(declare-fun it4 () Int)
(declare-fun i4 () Int)
(declare-fun it5 () Int)
(declare-fun i5 () Int)
(declare-fun it6 () Int)
(declare-fun i6 () Int)
(declare-fun i7 () Int)
(declare-fun it7 () Int)
(declare-fun it224 () Int)
(declare-fun it225 () Int)
(declare-fun it226 () Int)
(declare-fun it227 () Int)
(declare-fun it228 () Int)
(declare-fun it229 () Int)
(declare-fun it230 () Int)
(declare-fun it200 () Int)
(assert (= (+ i1 (- 1)) 0))
(assert (= (+ it1 (- 2)) 0))
(assert (= (+ (* i2 (- 1)) it2 (- 1)) 0))
(assert (= (+ (* i3 (- 1)) it3) 0))
(assert (= (+ (* i4 (- 1)) it4) 0))
(assert (= (+ (* i5 (- 1)) it5) 0))
(assert (= (+ (* i6 (- 1)) it6) 0))
(assert (= (+ it7 (* i7 (- 1))) 0))
(assert (and (> it3 0) (> it6 0) (= (+ it1 (- 2)) 0)))
(assert (= (+ it224 (- 3)) 0))
(assert (= (+ (* it2 (- 1)) it225 (- 1)) 0))
(assert (= (+ (* it3 (- 1)) it226) 0))
(assert (= (+ it227 (* it3 (- 1))) 0))
(assert (= (+ (* it7 (- 1)) it228) 0))
(assert (= (+ (* it6 (- 1)) it229) 0))
(assert (= (+ it230 (* it7 (- 1))) 0))
(assert (let ((a!1 (> (+ (+ 0 it228)
                 (* (exp it229 5) (+ 0 (- 1)))
                 (* (exp it227 2) (+ 0 (- 1))))
              (+ 0 0)))
      (a!2 (* (* (exp 9 (+ it200 (- 1))) (+ 0 it228)) (+ 0 3)))
      (a!3 (* (exp it227 2) (exp (exp 4 (+ it200 (- 1))) (+ 0 2))))
      (a!4 (* (* (exp 9 (+ it200 (- 1))) (exp it229 3)) (+ 0 (- 3))))
      (a!6 (* (* (exp 9 (+ it200 (- 1))) (exp it229 3)) (+ 0 (- 1)))))
(let ((a!5 (> (+ a!2
                 (* a!3 (+ 0 (- 4)))
                 (exp it229 3)
                 (* (exp it229 5) (+ 0 (- 1)))
                 a!4)
              (+ 0 0)))
      (a!7 (+ (* (exp 9 (+ it200 (- 1))) (+ 0 it228))
              (* a!3 (+ 0 (- 1)))
              (exp it229 3)
              (* (exp it229 5) (+ 0 (- 1)))
              a!6)))
  (and (> (* it227 (- 2)) 0)
       a!1
       a!5
       (> a!7 (+ 0 0))
       (> (* it227 (- 1)) 0)
       (>= (+ it224 (- 3)) 0)
       (>= (+ (* it224 (- 1)) 3) 0)
       (>= (+ it200 (- 1)) 0)))))
(check-sat)
